Route #1: 1 5 36 42 41 28 26 33 30 6 22 1
Route #2: 1 34 21 19 15 29 20 38 24 13 1
Route #3: 1 27 43 40 35 8 17 16 39 11 1
Route #4: 1 10 32 9 3 2 1
Route #5: 1 18 37 7 25 23 4 12 1
Route #6: 1 31 14 1
cost: 828
